************************************************************************
file with basedata            : mm12_.bas
initial value random generator: 1471179541
************************************************************************
projects                      :  1
jobs (incl. supersource/sink ):  12
horizon                       :  86
RESOURCES
  - renewable                 :  2   R
  - nonrenewable              :  2   N
  - doubly constrained        :  0   D
************************************************************************
PROJECT INFORMATION:
pronr.  #jobs rel.date duedate tardcost  MPM-Time
    1     10      0       17        0       17
************************************************************************
PRECEDENCE RELATIONS:
jobnr.    #modes  #successors   successors
   0        1          3           1   2   3
   1        3          1           9
   2        3          3           5   6   8
   3        3          3           4   6  10
   4        3          1           8
   5        3          2           7  10
   6        3          1           7
   7        3          1           9
   8        3          1          11
   9        3          1          11
  10        3          1          11
  11        1          0        
************************************************************************
REQUESTS/DURATIONS:
jobnr. mode duration  R 1  R 2  R 3  R 4  E(W 1)  E(W 2)
------------------------------------------------------------------------
  0      1     0       0    0    0    0     0       0
  1      1     6       3    0    7    0    18      42
  2      1     5       0    4   10    0    20      50
  3      1     1       0    7    0    6     7       6
  4      1     3       0    8    0    3    24       9
  5      1     2       0    8    8    0    16      16
  6      1     9       3    0    0    9    27      81
  7      1     2       8    0   10    0    16      20
  8      1     2       0    6    0    8    12      16
  9      1     1       0    8    7    0     8       7
 10      1     6       0    4   10    0    24      60
 11      1     0       0    0    0    0     0       0
************************************************************************
RESOURCEAVAILABILITIES:
  R 1  R 2
   28   132
************************************************************************
RESOURCE LIMITS:
jobnr.  l(R 1)  u(R 1)  l(R 2)  u(R 2)
------------------------------------------------------------------------
  0        0       0       0       0
  1        2       3       4       7
  2        2       4       5      10
  3        4       7       3       6
  4        4       8       2       3
  5        4       8       4       8
  6        2       3       5       9
  7        4       8       5      10
  8        3       6       4       8
  9        4       8       4       7
 10        2       4       5      10
 11        0       0       0       0
************************************************************************
SCENARIOS:
------------------------------------------------------------------------
RESOURCE k = 1
s = 1: (0, 16, 19, 11, 20, 23, 24, 10, 14, 12, 19, 0)
s = 2: (0, 14, 15, 9, 19, 11, 21, 13, 12, 9, 16, 0)
s = 3: (0, 22, 13, 6, 34, 13, 17, 28, 18, 9, 22, 0)
s = 4: (0, 22, 20, 5, 16, 23, 28, 21, 8, 11, 29, 0)
s = 5: (0, 10, 23, 6, 42, 17, 28, 10, 15, 5, 38, 0)
s = 6: (0, 23, 35, 5, 21, 15, 29, 15, 9, 8, 16, 0)
s = 7: (0, 12, 27, 7, 28, 17, 37, 19, 15, 7, 30, 0)
s = 8: (0, 17, 14, 12, 19, 16, 19, 14, 10, 6, 16, 0)
s = 9: (0, 18, 17, 7, 19, 17, 44, 26, 11, 6, 24, 0)
s = 10: (0, 13, 25, 6, 18, 22, 33, 12, 10, 11, 22, 0)
s = 11: (0, 17, 24, 5, 21, 27, 15, 16, 10, 8, 31, 0)
s = 12: (0, 12, 14, 7, 32, 19, 29, 17, 15, 10, 27, 0)
s = 13: (0, 15, 16, 8, 18, 20, 26, 16, 9, 7, 23, 0)
s = 14: (0, 19, 18, 6, 35, 16, 34, 17, 7, 7, 28, 0)
s = 15: (0, 21, 13, 6, 20, 22, 40, 14, 7, 10, 16, 0)
s = 16: (0, 28, 14, 7, 24, 13, 19, 10, 15, 7, 26, 0)
s = 17: (0, 32, 17, 7, 34, 16, 29, 13, 13, 8, 24, 0)
s = 18: (0, 14, 16, 8, 15, 20, 29, 15, 14, 8, 14, 0)
s = 19: (0, 18, 15, 5, 22, 20, 25, 17, 9, 11, 32, 0)
s = 20: (0, 25, 19, 11, 17, 30, 23, 18, 9, 10, 35, 0)
s = 21: (0, 18, 17, 11, 22, 18, 24, 16, 9, 7, 26, 0)
s = 22: (0, 12, 13, 7, 17, 14, 31, 17, 16, 9, 21, 0)
s = 23: (0, 19, 27, 5, 15, 19, 20, 20, 10, 10, 18, 0)
s = 24: (0, 15, 14, 5, 23, 22, 24, 14, 9, 12, 24, 0)
s = 25: (0, 26, 22, 5, 26, 12, 17, 15, 10, 9, 22, 0)
s = 26: (0, 17, 29, 12, 16, 14, 22, 23, 20, 10, 19, 0)
s = 27: (0, 18, 31, 8, 22, 20, 34, 18, 7, 6, 18, 0)
s = 28: (0, 27, 13, 5, 26, 16, 46, 15, 13, 9, 24, 0)
s = 29: (0, 16, 28, 9, 25, 12, 26, 17, 7, 10, 19, 0)
s = 30: (0, 19, 14, 9, 25, 12, 26, 13, 7, 12, 24, 0)
s = 31: (0, 16, 17, 8, 23, 12, 17, 14, 9, 9, 24, 0)
s = 32: (0, 17, 31, 6, 31, 15, 33, 23, 15, 10, 37, 0)
s = 33: (0, 25, 23, 6, 23, 15, 18, 17, 14, 5, 27, 0)
s = 34: (0, 13, 28, 8, 14, 12, 24, 20, 14, 7, 18, 0)
s = 35: (0, 20, 24, 6, 34, 22, 32, 23, 12, 7, 23, 0)
s = 36: (0, 18, 19, 6, 32, 25, 31, 11, 12, 7, 22, 0)
s = 37: (0, 22, 25, 8, 27, 16, 29, 12, 19, 7, 37, 0)
s = 38: (0, 16, 21, 7, 27, 10, 21, 15, 12, 10, 24, 0)
s = 39: (0, 19, 21, 12, 20, 12, 20, 11, 10, 8, 21, 0)
s = 40: (0, 12, 16, 6, 23, 14, 20, 14, 8, 8, 21, 0)
s = 41: (0, 15, 27, 10, 22, 21, 24, 19, 13, 10, 26, 0)
s = 42: (0, 15, 16, 8, 24, 14, 31, 24, 12, 10, 19, 0)
s = 43: (0, 16, 21, 8, 18, 15, 21, 18, 13, 8, 17, 0)
s = 44: (0, 10, 32, 6, 24, 12, 43, 13, 9, 10, 14, 0)
s = 45: (0, 19, 23, 10, 42, 13, 31, 13, 9, 6, 22, 0)
s = 46: (0, 25, 15, 9, 27, 14, 32, 10, 8, 10, 21, 0)
s = 47: (0, 19, 22, 8, 22, 9, 26, 15, 16, 9, 22, 0)
s = 48: (0, 13, 17, 7, 14, 11, 40, 18, 14, 8, 22, 0)
s = 49: (0, 17, 31, 7, 14, 17, 33, 18, 15, 7, 26, 0)
s = 50: (0, 15, 25, 9, 15, 21, 19, 21, 14, 8, 29, 0)
s = 51: (0, 27, 16, 6, 28, 16, 19, 9, 14, 7, 23, 0)
s = 52: (0, 17, 19, 9, 17, 12, 22, 20, 11, 12, 32, 0)
s = 53: (0, 17, 15, 7, 21, 18, 23, 24, 14, 9, 16, 0)
s = 54: (0, 20, 19, 6, 23, 12, 19, 19, 22, 10, 23, 0)
s = 55: (0, 12, 24, 10, 31, 15, 27, 13, 8, 7, 26, 0)
s = 56: (0, 28, 28, 9, 22, 11, 17, 16, 13, 8, 30, 0)
s = 57: (0, 19, 15, 6, 20, 14, 28, 9, 10, 9, 24, 0)
s = 58: (0, 26, 25, 8, 16, 12, 25, 15, 10, 8, 14, 0)
s = 59: (0, 15, 19, 10, 24, 9, 24, 20, 17, 6, 16, 0)
s = 60: (0, 14, 21, 7, 27, 14, 34, 14, 9, 11, 23, 0)
s = 61: (0, 16, 28, 6, 16, 15, 33, 12, 18, 9, 29, 0)
s = 62: (0, 21, 14, 8, 37, 22, 31, 12, 12, 7, 40, 0)
s = 63: (0, 17, 16, 8, 17, 13, 26, 21, 17, 12, 38, 0)
s = 64: (0, 11, 14, 5, 22, 22, 27, 22, 9, 6, 19, 0)
s = 65: (0, 16, 20, 7, 18, 15, 24, 13, 14, 9, 15, 0)
s = 66: (0, 21, 14, 8, 46, 23, 21, 21, 10, 13, 25, 0)
s = 67: (0, 15, 34, 10, 17, 19, 34, 17, 14, 13, 18, 0)
s = 68: (0, 19, 19, 5, 25, 18, 32, 20, 12, 12, 20, 0)
s = 69: (0, 14, 16, 8, 33, 20, 37, 27, 11, 5, 25, 0)
s = 70: (0, 29, 22, 5, 23, 17, 19, 18, 13, 9, 32, 0)
s = 71: (0, 16, 19, 9, 21, 14, 34, 13, 17, 5, 31, 0)
s = 72: (0, 15, 15, 5, 24, 13, 28, 24, 8, 9, 16, 0)
s = 73: (0, 17, 18, 9, 35, 13, 18, 13, 12, 13, 29, 0)
s = 74: (0, 20, 21, 7, 21, 19, 31, 14, 9, 10, 18, 0)
s = 75: (0, 28, 16, 5, 32, 11, 31, 18, 14, 8, 22, 0)
s = 76: (0, 25, 20, 11, 23, 15, 22, 15, 18, 9, 18, 0)
s = 77: (0, 17, 20, 8, 27, 18, 25, 15, 15, 7, 19, 0)
s = 78: (0, 17, 25, 11, 24, 24, 16, 18, 8, 7, 16, 0)
s = 79: (0, 14, 13, 4, 36, 23, 49, 13, 18, 12, 17, 0)
s = 80: (0, 19, 15, 7, 24, 17, 20, 11, 10, 7, 26, 0)
s = 81: (0, 19, 21, 5, 21, 14, 29, 27, 11, 6, 31, 0)
s = 82: (0, 22, 34, 7, 25, 14, 17, 16, 12, 11, 40, 0)
s = 83: (0, 18, 15, 8, 22, 10, 33, 14, 13, 10, 21, 0)
s = 84: (0, 15, 27, 8, 27, 9, 17, 12, 15, 10, 31, 0)
s = 85: (0, 12, 22, 5, 15, 13, 22, 21, 11, 5, 26, 0)
s = 86: (0, 22, 14, 6, 21, 27, 27, 21, 9, 10, 27, 0)
s = 87: (0, 14, 27, 5, 23, 20, 34, 16, 17, 11, 38, 0)
s = 88: (0, 17, 17, 8, 33, 15, 44, 14, 19, 7, 30, 0)
s = 89: (0, 16, 24, 9, 41, 12, 30, 18, 9, 6, 36, 0)
s = 90: (0, 15, 28, 8, 24, 13, 21, 16, 9, 8, 30, 0)
s = 91: (0, 18, 16, 9, 23, 19, 30, 13, 21, 5, 18, 0)
s = 92: (0, 15, 18, 10, 21, 15, 38, 11, 12, 9, 14, 0)
s = 93: (0, 15, 22, 9, 20, 17, 21, 20, 15, 6, 16, 0)
s = 94: (0, 14, 25, 7, 26, 27, 22, 14, 16, 10, 24, 0)
s = 95: (0, 26, 15, 5, 20, 20, 20, 16, 10, 8, 20, 0)
s = 96: (0, 19, 16, 7, 16, 16, 22, 19, 9, 6, 19, 0)
s = 97: (0, 31, 21, 8, 23, 21, 30, 19, 16, 10, 19, 0)
s = 98: (0, 18, 17, 11, 23, 28, 22, 13, 8, 11, 14, 0)
s = 99: (0, 12, 24, 5, 24, 11, 32, 18, 14, 9, 31, 0)
s = 100: (0, 19, 20, 8, 20, 26, 22, 13, 11, 12, 30, 0)
s = 101: (0, 15, 21, 6, 23, 12, 28, 16, 13, 7, 26, 0)
s = 102: (0, 18, 21, 4, 23, 14, 22, 18, 14, 7, 26, 0)
s = 103: (0, 20, 17, 12, 21, 23, 22, 18, 12, 6, 15, 0)
s = 104: (0, 14, 14, 11, 29, 21, 23, 17, 15, 15, 20, 0)
s = 105: (0, 13, 27, 5, 28, 10, 24, 17, 13, 7, 16, 0)
s = 106: (0, 22, 15, 8, 21, 17, 18, 14, 13, 5, 35, 0)
s = 107: (0, 16, 27, 7, 15, 13, 17, 23, 14, 9, 27, 0)
s = 108: (0, 23, 17, 6, 21, 17, 20, 23, 11, 7, 25, 0)
s = 109: (0, 13, 18, 9, 16, 14, 31, 11, 10, 13, 26, 0)
s = 110: (0, 11, 12, 10, 26, 14, 23, 17, 12, 6, 32, 0)
s = 111: (0, 12, 30, 7, 14, 15, 22, 15, 8, 10, 21, 0)
s = 112: (0, 12, 12, 6, 24, 18, 30, 13, 9, 9, 25, 0)
s = 113: (0, 23, 18, 10, 19, 14, 20, 17, 9, 10, 15, 0)
s = 114: (0, 16, 17, 8, 38, 23, 26, 17, 9, 5, 22, 0)
s = 115: (0, 14, 13, 7, 15, 17, 18, 21, 7, 10, 17, 0)
s = 116: (0, 14, 17, 7, 22, 11, 19, 22, 21, 6, 34, 0)
s = 117: (0, 21, 16, 12, 28, 14, 22, 14, 12, 8, 25, 0)
s = 118: (0, 15, 17, 6, 20, 12, 26, 24, 18, 9, 22, 0)
s = 119: (0, 13, 13, 7, 17, 13, 31, 19, 8, 12, 27, 0)
s = 120: (0, 12, 18, 13, 22, 12, 21, 19, 14, 10, 27, 0)
s = 121: (0, 17, 36, 7, 29, 12, 29, 14, 16, 12, 22, 0)
s = 122: (0, 22, 34, 8, 27, 20, 28, 11, 17, 8, 19, 0)
s = 123: (0, 22, 16, 7, 19, 12, 20, 23, 13, 10, 31, 0)
s = 124: (0, 17, 27, 7, 18, 18, 21, 15, 9, 10, 27, 0)
s = 125: (0, 24, 19, 6, 33, 16, 27, 15, 9, 13, 23, 0)
s = 126: (0, 31, 21, 8, 24, 23, 18, 17, 14, 5, 26, 0)
s = 127: (0, 13, 25, 12, 32, 21, 27, 25, 8, 7, 20, 0)
s = 128: (0, 26, 16, 5, 22, 9, 24, 19, 8, 11, 36, 0)
s = 129: (0, 21, 25, 7, 17, 20, 25, 19, 11, 10, 24, 0)
s = 130: (0, 26, 17, 7, 22, 13, 16, 25, 11, 8, 38, 0)
s = 131: (0, 23, 14, 7, 21, 10, 20, 21, 16, 9, 18, 0)
s = 132: (0, 15, 14, 8, 18, 24, 21, 11, 9, 12, 18, 0)
s = 133: (0, 12, 15, 7, 15, 20, 21, 20, 20, 6, 31, 0)
s = 134: (0, 29, 34, 4, 19, 15, 23, 27, 16, 11, 24, 0)
s = 135: (0, 13, 14, 7, 31, 19, 29, 17, 16, 7, 27, 0)
s = 136: (0, 22, 12, 5, 18, 13, 45, 17, 14, 8, 21, 0)
s = 137: (0, 27, 13, 7, 22, 26, 37, 17, 10, 11, 39, 0)
s = 138: (0, 27, 18, 6, 19, 19, 30, 13, 14, 6, 20, 0)
s = 139: (0, 17, 13, 6, 19, 13, 22, 12, 7, 6, 19, 0)
s = 140: (0, 26, 20, 5, 25, 16, 27, 14, 14, 10, 23, 0)
s = 141: (0, 23, 15, 6, 29, 13, 28, 13, 10, 5, 40, 0)
s = 142: (0, 17, 22, 10, 31, 20, 17, 11, 23, 8, 22, 0)
s = 143: (0, 18, 16, 4, 28, 15, 30, 12, 11, 5, 17, 0)
s = 144: (0, 12, 24, 6, 18, 12, 30, 9, 10, 10, 22, 0)
s = 145: (0, 29, 17, 10, 20, 16, 16, 21, 8, 9, 20, 0)
s = 146: (0, 12, 24, 7, 30, 15, 28, 15, 9, 10, 14, 0)
s = 147: (0, 17, 25, 6, 25, 18, 26, 13, 8, 6, 14, 0)
s = 148: (0, 16, 19, 7, 25, 10, 25, 21, 20, 9, 19, 0)
s = 149: (0, 13, 28, 9, 35, 17, 39, 12, 9, 11, 29, 0)
s = 150: (0, 21, 16, 9, 26, 18, 47, 12, 14, 9, 26, 0)
s = 151: (0, 19, 22, 7, 17, 11, 21, 19, 9, 8, 14, 0)
s = 152: (0, 21, 14, 8, 21, 16, 34, 24, 16, 12, 16, 0)
s = 153: (0, 22, 25, 10, 19, 11, 18, 11, 11, 7, 24, 0)
s = 154: (0, 13, 25, 7, 30, 30, 41, 14, 13, 8, 34, 0)
s = 155: (0, 30, 27, 11, 17, 23, 44, 14, 14, 10, 27, 0)
s = 156: (0, 18, 17, 13, 24, 15, 18, 28, 19, 11, 24, 0)
s = 157: (0, 29, 15, 5, 31, 11, 25, 14, 19, 6, 27, 0)
s = 158: (0, 12, 21, 5, 16, 14, 34, 23, 18, 8, 22, 0)
s = 159: (0, 27, 22, 4, 18, 11, 22, 15, 7, 9, 15, 0)
s = 160: (0, 25, 21, 6, 26, 10, 17, 29, 8, 7, 30, 0)
s = 161: (0, 16, 17, 9, 22, 18, 26, 19, 13, 12, 21, 0)
s = 162: (0, 19, 21, 8, 19, 20, 24, 9, 12, 13, 23, 0)
s = 163: (0, 22, 21, 6, 25, 23, 33, 11, 12, 5, 13, 0)
s = 164: (0, 16, 19, 9, 21, 28, 18, 16, 14, 9, 29, 0)
s = 165: (0, 23, 20, 8, 14, 10, 29, 11, 9, 6, 24, 0)
s = 166: (0, 13, 21, 9, 26, 17, 27, 15, 18, 11, 26, 0)
s = 167: (0, 18, 19, 10, 33, 12, 21, 15, 13, 10, 24, 0)
s = 168: (0, 16, 21, 7, 17, 19, 15, 18, 10, 12, 19, 0)
s = 169: (0, 18, 28, 8, 34, 13, 20, 10, 13, 8, 31, 0)
s = 170: (0, 19, 24, 7, 19, 16, 19, 19, 8, 7, 14, 0)
s = 171: (0, 19, 18, 6, 31, 26, 20, 17, 12, 6, 21, 0)
s = 172: (0, 11, 22, 7, 30, 17, 29, 15, 13, 7, 32, 0)
s = 173: (0, 17, 32, 7, 27, 18, 33, 13, 13, 7, 15, 0)
s = 174: (0, 18, 32, 9, 17, 18, 32, 23, 16, 11, 24, 0)
s = 175: (0, 11, 18, 10, 32, 18, 32, 14, 11, 12, 26, 0)
s = 176: (0, 19, 19, 8, 20, 18, 31, 17, 9, 11, 31, 0)
s = 177: (0, 16, 16, 5, 19, 21, 44, 20, 12, 5, 22, 0)
s = 178: (0, 13, 15, 8, 26, 17, 33, 17, 9, 7, 18, 0)
s = 179: (0, 17, 19, 13, 21, 26, 23, 18, 15, 8, 20, 0)
s = 180: (0, 12, 33, 6, 20, 15, 25, 25, 17, 6, 25, 0)
s = 181: (0, 15, 18, 8, 21, 13, 27, 17, 18, 9, 19, 0)
s = 182: (0, 17, 15, 7, 26, 19, 18, 11, 11, 6, 21, 0)
s = 183: (0, 22, 26, 6, 17, 20, 24, 19, 18, 11, 19, 0)
s = 184: (0, 19, 25, 5, 31, 18, 19, 16, 11, 7, 19, 0)
s = 185: (0, 20, 16, 11, 20, 11, 29, 13, 14, 10, 16, 0)
s = 186: (0, 23, 18, 5, 28, 22, 25, 12, 20, 11, 13, 0)
s = 187: (0, 14, 34, 7, 42, 21, 19, 21, 10, 12, 16, 0)
s = 188: (0, 14, 16, 5, 20, 18, 20, 17, 15, 7, 18, 0)
s = 189: (0, 19, 13, 9, 15, 23, 24, 16, 9, 7, 18, 0)
s = 190: (0, 31, 19, 13, 38, 13, 25, 11, 11, 7, 22, 0)
s = 191: (0, 15, 20, 10, 19, 14, 32, 12, 13, 9, 19, 0)
s = 192: (0, 20, 19, 14, 23, 18, 29, 17, 12, 10, 28, 0)
s = 193: (0, 13, 12, 7, 28, 13, 25, 17, 15, 10, 45, 0)
s = 194: (0, 17, 22, 10, 21, 16, 34, 14, 15, 9, 24, 0)
s = 195: (0, 14, 20, 8, 21, 15, 21, 18, 10, 9, 36, 0)
s = 196: (0, 19, 27, 9, 17, 14, 24, 14, 10, 12, 29, 0)
s = 197: (0, 15, 23, 10, 17, 13, 41, 9, 8, 10, 15, 0)
s = 198: (0, 14, 18, 6, 27, 24, 25, 16, 10, 7, 29, 0)
s = 199: (0, 18, 24, 8, 24, 27, 39, 32, 14, 12, 28, 0)
s = 200: (0, 11, 14, 12, 22, 15, 17, 18, 12, 7, 26, 0)
------------------------------------------------------------------------
RESOURCE k = 2
s = 1: (0, 37, 48, 9, 8, 23, 70, 13, 19, 10, 47, 0)
s = 2: (0, 33, 36, 8, 7, 11, 62, 17, 16, 8, 38, 0)
s = 3: (0, 51, 32, 5, 13, 13, 50, 35, 24, 8, 54, 0)
s = 4: (0, 50, 50, 4, 6, 23, 84, 26, 11, 9, 73, 0)
s = 5: (0, 24, 57, 5, 16, 17, 82, 12, 20, 5, 95, 0)
s = 6: (0, 52, 87, 4, 8, 15, 87, 18, 11, 7, 39, 0)
s = 7: (0, 27, 66, 6, 11, 17, 109, 23, 20, 6, 75, 0)
s = 8: (0, 38, 33, 10, 7, 16, 57, 17, 13, 5, 39, 0)
s = 9: (0, 41, 42, 6, 7, 17, 132, 32, 15, 5, 60, 0)
s = 10: (0, 31, 62, 5, 7, 22, 98, 14, 14, 9, 55, 0)
s = 11: (0, 39, 59, 5, 8, 27, 45, 20, 13, 7, 77, 0)
s = 12: (0, 28, 35, 6, 12, 19, 85, 22, 19, 9, 66, 0)
s = 13: (0, 35, 38, 7, 7, 20, 76, 20, 12, 6, 56, 0)
s = 14: (0, 45, 45, 6, 13, 16, 100, 21, 10, 6, 70, 0)
s = 15: (0, 47, 31, 5, 8, 22, 119, 17, 9, 9, 39, 0)
s = 16: (0, 64, 33, 6, 9, 13, 55, 12, 19, 6, 65, 0)
s = 17: (0, 75, 41, 6, 13, 16, 87, 17, 17, 7, 58, 0)
s = 18: (0, 32, 40, 7, 6, 20, 87, 18, 18, 7, 33, 0)
s = 19: (0, 42, 36, 5, 8, 20, 73, 21, 12, 10, 80, 0)
s = 20: (0, 58, 47, 9, 7, 30, 68, 23, 12, 9, 86, 0)
s = 21: (0, 42, 41, 9, 9, 18, 70, 19, 11, 6, 65, 0)
s = 22: (0, 28, 32, 6, 7, 14, 92, 21, 21, 8, 51, 0)
s = 23: (0, 43, 68, 5, 6, 19, 59, 24, 13, 9, 43, 0)
s = 24: (0, 34, 35, 5, 9, 22, 70, 17, 12, 11, 60, 0)
s = 25: (0, 61, 55, 4, 10, 12, 50, 18, 13, 8, 54, 0)
s = 26: (0, 40, 73, 11, 6, 14, 66, 29, 27, 9, 46, 0)
s = 27: (0, 42, 76, 7, 9, 20, 102, 22, 9, 5, 45, 0)
s = 28: (0, 62, 32, 4, 10, 16, 137, 19, 18, 8, 60, 0)
s = 29: (0, 37, 70, 7, 10, 12, 76, 21, 9, 9, 46, 0)
s = 30: (0, 43, 34, 7, 10, 12, 76, 16, 10, 11, 60, 0)
s = 31: (0, 37, 41, 7, 9, 12, 50, 18, 11, 8, 60, 0)
s = 32: (0, 39, 76, 6, 12, 15, 99, 28, 20, 8, 92, 0)
s = 33: (0, 57, 56, 5, 9, 15, 54, 21, 18, 5, 68, 0)
s = 34: (0, 29, 70, 7, 6, 12, 70, 25, 19, 6, 45, 0)
s = 35: (0, 47, 58, 5, 13, 22, 95, 28, 16, 6, 57, 0)
s = 36: (0, 41, 47, 5, 12, 25, 92, 13, 16, 6, 54, 0)
s = 37: (0, 51, 61, 7, 11, 16, 85, 15, 25, 7, 92, 0)
s = 38: (0, 37, 51, 6, 10, 10, 63, 19, 15, 9, 59, 0)
s = 39: (0, 43, 53, 10, 8, 12, 60, 14, 13, 7, 52, 0)
s = 40: (0, 26, 39, 5, 9, 14, 58, 18, 10, 7, 52, 0)
s = 41: (0, 35, 67, 9, 9, 21, 72, 24, 18, 8, 64, 0)
s = 42: (0, 35, 40, 7, 9, 14, 93, 30, 16, 9, 47, 0)
s = 43: (0, 38, 52, 7, 7, 15, 62, 23, 17, 7, 42, 0)
s = 44: (0, 24, 79, 5, 9, 12, 128, 16, 11, 8, 33, 0)
s = 45: (0, 44, 57, 8, 16, 13, 91, 16, 12, 5, 55, 0)
s = 46: (0, 57, 38, 8, 10, 14, 96, 12, 11, 9, 52, 0)
s = 47: (0, 44, 54, 7, 8, 9, 76, 18, 22, 8, 55, 0)
s = 48: (0, 30, 42, 6, 6, 11, 118, 22, 19, 7, 54, 0)
s = 49: (0, 39, 76, 6, 6, 17, 98, 23, 20, 7, 64, 0)
s = 50: (0, 33, 61, 8, 6, 21, 56, 26, 18, 7, 72, 0)
s = 51: (0, 63, 39, 6, 11, 16, 55, 11, 18, 6, 57, 0)
s = 52: (0, 39, 47, 8, 7, 12, 64, 24, 14, 11, 80, 0)
s = 53: (0, 38, 37, 6, 8, 18, 68, 30, 19, 8, 39, 0)
s = 54: (0, 46, 47, 5, 9, 12, 57, 24, 29, 9, 58, 0)
s = 55: (0, 28, 59, 8, 12, 15, 79, 16, 11, 6, 64, 0)
s = 56: (0, 64, 70, 8, 9, 11, 50, 20, 17, 7, 74, 0)
s = 57: (0, 44, 36, 6, 8, 14, 82, 11, 14, 8, 59, 0)
s = 58: (0, 59, 62, 7, 6, 12, 74, 18, 13, 7, 35, 0)
s = 59: (0, 35, 48, 8, 9, 9, 72, 24, 22, 6, 39, 0)
s = 60: (0, 32, 52, 6, 10, 14, 100, 17, 12, 10, 57, 0)
s = 61: (0, 36, 69, 5, 6, 15, 97, 15, 24, 8, 71, 0)
s = 62: (0, 48, 33, 7, 14, 22, 91, 15, 15, 7, 98, 0)
s = 63: (0, 40, 39, 7, 7, 13, 76, 26, 23, 11, 95, 0)
s = 64: (0, 26, 35, 4, 8, 22, 80, 27, 11, 5, 47, 0)
s = 65: (0, 36, 50, 6, 7, 15, 71, 16, 18, 8, 38, 0)
s = 66: (0, 49, 35, 7, 18, 23, 61, 26, 13, 12, 62, 0)
s = 67: (0, 34, 85, 8, 7, 19, 100, 22, 18, 11, 45, 0)
s = 68: (0, 44, 47, 5, 10, 18, 94, 25, 16, 10, 48, 0)
s = 69: (0, 31, 39, 7, 13, 20, 111, 33, 14, 4, 63, 0)
s = 70: (0, 67, 55, 4, 9, 17, 55, 23, 18, 8, 80, 0)
s = 71: (0, 36, 46, 8, 8, 14, 100, 16, 23, 4, 76, 0)
s = 72: (0, 34, 36, 5, 9, 13, 82, 30, 11, 8, 38, 0)
s = 73: (0, 40, 43, 8, 13, 13, 54, 16, 16, 11, 72, 0)
s = 74: (0, 45, 51, 6, 8, 19, 91, 17, 12, 8, 44, 0)
s = 75: (0, 64, 39, 5, 12, 11, 91, 22, 19, 7, 53, 0)
s = 76: (0, 57, 49, 10, 9, 15, 65, 19, 23, 8, 44, 0)
s = 77: (0, 39, 50, 7, 11, 18, 73, 18, 20, 6, 46, 0)
s = 78: (0, 40, 61, 10, 9, 24, 47, 22, 11, 6, 40, 0)
s = 79: (0, 33, 31, 4, 14, 23, 145, 16, 24, 10, 42, 0)
s = 80: (0, 43, 36, 6, 9, 17, 58, 14, 13, 7, 65, 0)
s = 81: (0, 43, 53, 4, 8, 14, 85, 33, 15, 6, 78, 0)
s = 82: (0, 51, 83, 6, 10, 14, 50, 20, 16, 10, 99, 0)
s = 83: (0, 41, 37, 7, 9, 10, 98, 17, 17, 9, 52, 0)
s = 84: (0, 34, 66, 7, 11, 9, 50, 15, 20, 9, 78, 0)
s = 85: (0, 26, 55, 5, 6, 13, 65, 27, 14, 4, 64, 0)
s = 86: (0, 50, 34, 5, 8, 27, 79, 26, 12, 9, 68, 0)
s = 87: (0, 32, 67, 5, 9, 20, 102, 20, 23, 10, 94, 0)
s = 88: (0, 39, 41, 7, 13, 15, 131, 17, 26, 6, 74, 0)
s = 89: (0, 37, 59, 8, 16, 12, 88, 22, 12, 6, 90, 0)
s = 90: (0, 34, 69, 7, 9, 13, 61, 20, 12, 7, 73, 0)
s = 91: (0, 42, 40, 8, 9, 19, 88, 16, 28, 4, 44, 0)
s = 92: (0, 33, 44, 9, 8, 15, 113, 14, 16, 8, 34, 0)
s = 93: (0, 35, 54, 8, 8, 17, 61, 25, 19, 6, 40, 0)
s = 94: (0, 32, 61, 6, 10, 27, 64, 17, 21, 8, 58, 0)
s = 95: (0, 59, 36, 4, 8, 20, 58, 20, 14, 7, 48, 0)
s = 96: (0, 43, 39, 6, 6, 16, 65, 24, 12, 6, 48, 0)
s = 97: (0, 71, 51, 7, 9, 21, 88, 24, 21, 9, 48, 0)
s = 98: (0, 41, 41, 10, 9, 28, 65, 16, 11, 10, 34, 0)
s = 99: (0, 27, 58, 4, 9, 11, 96, 22, 18, 8, 76, 0)
s = 100: (0, 43, 48, 7, 8, 26, 65, 16, 14, 11, 73, 0)
s = 101: (0, 35, 52, 5, 9, 12, 83, 20, 18, 6, 65, 0)
s = 102: (0, 41, 51, 4, 9, 14, 65, 22, 19, 6, 65, 0)
s = 103: (0, 47, 41, 10, 8, 23, 64, 22, 15, 5, 38, 0)
s = 104: (0, 32, 34, 9, 11, 21, 67, 21, 20, 13, 50, 0)
s = 105: (0, 30, 67, 5, 11, 10, 71, 22, 17, 6, 38, 0)
s = 106: (0, 51, 36, 7, 8, 17, 52, 17, 17, 4, 86, 0)
s = 107: (0, 37, 67, 6, 6, 13, 51, 29, 19, 8, 67, 0)
s = 108: (0, 54, 42, 6, 8, 17, 59, 29, 14, 6, 62, 0)
s = 109: (0, 29, 45, 8, 6, 14, 93, 14, 14, 12, 64, 0)
s = 110: (0, 26, 29, 9, 10, 14, 68, 21, 16, 6, 80, 0)
s = 111: (0, 28, 75, 6, 6, 15, 65, 18, 10, 9, 52, 0)
s = 112: (0, 27, 30, 6, 9, 18, 89, 16, 12, 8, 63, 0)
s = 113: (0, 52, 45, 8, 8, 14, 58, 21, 12, 9, 38, 0)
s = 114: (0, 37, 42, 7, 15, 23, 76, 22, 12, 5, 55, 0)
s = 115: (0, 31, 31, 6, 6, 17, 54, 26, 9, 8, 43, 0)
s = 116: (0, 32, 42, 6, 8, 11, 57, 27, 28, 5, 84, 0)
s = 117: (0, 48, 40, 10, 11, 14, 65, 17, 16, 7, 62, 0)
s = 118: (0, 34, 41, 5, 8, 12, 77, 30, 24, 8, 54, 0)
s = 119: (0, 30, 33, 6, 7, 13, 93, 24, 10, 11, 67, 0)
s = 120: (0, 26, 44, 11, 9, 12, 61, 24, 19, 9, 66, 0)
s = 121: (0, 39, 89, 6, 11, 12, 87, 17, 21, 10, 54, 0)
s = 122: (0, 51, 85, 7, 10, 20, 84, 13, 23, 7, 46, 0)
s = 123: (0, 51, 40, 6, 7, 12, 59, 29, 18, 9, 76, 0)
s = 124: (0, 40, 66, 6, 7, 18, 61, 19, 11, 9, 67, 0)
s = 125: (0, 56, 48, 5, 13, 16, 79, 19, 12, 11, 56, 0)
s = 126: (0, 71, 53, 7, 9, 23, 53, 21, 19, 5, 65, 0)
s = 127: (0, 29, 61, 11, 12, 21, 79, 31, 10, 7, 50, 0)
s = 128: (0, 59, 38, 4, 9, 9, 70, 23, 11, 10, 89, 0)
s = 129: (0, 47, 62, 6, 7, 20, 74, 23, 14, 9, 58, 0)
s = 130: (0, 61, 41, 6, 9, 13, 48, 31, 14, 7, 95, 0)
s = 131: (0, 52, 34, 6, 8, 10, 58, 26, 22, 8, 45, 0)
s = 132: (0, 34, 34, 7, 7, 24, 62, 13, 11, 11, 44, 0)
s = 133: (0, 27, 36, 6, 6, 20, 61, 25, 26, 5, 76, 0)
s = 134: (0, 66, 85, 4, 8, 15, 68, 34, 21, 10, 59, 0)
s = 135: (0, 30, 33, 6, 12, 19, 85, 21, 22, 6, 66, 0)
s = 136: (0, 50, 29, 4, 7, 13, 133, 21, 19, 7, 52, 0)
s = 137: (0, 61, 33, 6, 9, 26, 111, 21, 14, 9, 96, 0)
s = 138: (0, 62, 43, 5, 8, 19, 90, 16, 18, 5, 48, 0)
s = 139: (0, 38, 31, 5, 7, 13, 65, 15, 9, 6, 47, 0)
s = 140: (0, 59, 50, 4, 10, 16, 79, 17, 18, 9, 56, 0)
s = 141: (0, 54, 36, 5, 11, 13, 83, 16, 13, 5, 100, 0)
s = 142: (0, 38, 55, 8, 12, 20, 49, 14, 30, 7, 54, 0)
s = 143: (0, 41, 40, 4, 11, 15, 89, 15, 15, 5, 42, 0)
s = 144: (0, 26, 58, 5, 7, 12, 89, 12, 13, 9, 55, 0)
s = 145: (0, 67, 43, 9, 8, 16, 46, 26, 10, 8, 48, 0)
s = 146: (0, 27, 60, 6, 11, 15, 83, 19, 12, 9, 34, 0)
s = 147: (0, 38, 62, 5, 10, 18, 76, 16, 10, 5, 35, 0)
s = 148: (0, 38, 47, 6, 10, 10, 75, 26, 26, 8, 47, 0)
s = 149: (0, 31, 69, 8, 13, 17, 115, 15, 12, 10, 72, 0)
s = 150: (0, 48, 39, 7, 10, 18, 141, 14, 18, 8, 64, 0)
s = 151: (0, 44, 54, 6, 7, 11, 62, 24, 12, 7, 35, 0)
s = 152: (0, 47, 35, 7, 8, 16, 102, 30, 21, 10, 40, 0)
s = 153: (0, 51, 63, 9, 8, 11, 52, 13, 15, 6, 60, 0)
s = 154: (0, 30, 61, 6, 12, 30, 122, 18, 18, 7, 85, 0)
s = 155: (0, 69, 67, 10, 7, 23, 131, 18, 18, 9, 67, 0)
s = 156: (0, 41, 42, 11, 9, 15, 54, 34, 26, 9, 60, 0)
s = 157: (0, 67, 37, 5, 12, 11, 75, 18, 25, 5, 66, 0)
s = 158: (0, 28, 51, 4, 6, 14, 100, 28, 23, 7, 55, 0)
s = 159: (0, 61, 55, 4, 7, 11, 65, 19, 9, 8, 38, 0)
s = 160: (0, 57, 53, 5, 10, 10, 51, 36, 10, 6, 73, 0)
s = 161: (0, 36, 43, 8, 9, 18, 76, 23, 17, 11, 52, 0)
s = 162: (0, 44, 52, 7, 8, 20, 70, 12, 16, 12, 57, 0)
s = 163: (0, 50, 53, 5, 10, 23, 97, 13, 16, 5, 32, 0)
s = 164: (0, 36, 47, 7, 8, 28, 54, 20, 19, 8, 73, 0)
s = 165: (0, 53, 50, 7, 6, 10, 85, 14, 12, 6, 59, 0)
s = 166: (0, 29, 51, 8, 10, 17, 81, 19, 24, 10, 65, 0)
s = 167: (0, 42, 46, 9, 13, 12, 62, 19, 17, 9, 60, 0)
s = 168: (0, 37, 52, 6, 7, 19, 43, 22, 13, 11, 46, 0)
s = 169: (0, 42, 70, 7, 13, 13, 60, 12, 17, 7, 76, 0)
s = 170: (0, 43, 60, 6, 8, 16, 56, 24, 11, 6, 34, 0)
s = 171: (0, 43, 43, 5, 12, 26, 60, 21, 16, 5, 51, 0)
s = 172: (0, 25, 54, 6, 11, 17, 86, 19, 17, 6, 80, 0)
s = 173: (0, 39, 80, 6, 10, 18, 97, 17, 17, 7, 36, 0)
s = 174: (0, 42, 78, 8, 7, 18, 95, 28, 22, 9, 60, 0)
s = 175: (0, 24, 45, 9, 12, 18, 94, 18, 15, 11, 64, 0)
s = 176: (0, 44, 46, 7, 8, 18, 92, 21, 12, 9, 76, 0)
s = 177: (0, 37, 39, 5, 7, 21, 132, 25, 16, 4, 54, 0)
s = 178: (0, 31, 37, 7, 10, 17, 99, 21, 12, 7, 45, 0)
s = 179: (0, 39, 47, 12, 8, 26, 69, 23, 20, 7, 48, 0)
s = 180: (0, 27, 83, 5, 8, 15, 75, 31, 22, 5, 61, 0)
s = 181: (0, 35, 43, 7, 8, 13, 79, 21, 24, 8, 46, 0)
s = 182: (0, 39, 38, 6, 10, 19, 54, 14, 14, 6, 53, 0)
s = 183: (0, 50, 64, 5, 7, 20, 70, 24, 24, 10, 47, 0)
s = 184: (0, 43, 62, 5, 12, 18, 55, 20, 14, 6, 47, 0)
s = 185: (0, 45, 38, 10, 8, 11, 86, 16, 19, 8, 40, 0)
s = 186: (0, 53, 43, 4, 11, 22, 74, 15, 26, 10, 32, 0)
s = 187: (0, 31, 85, 6, 16, 21, 57, 26, 13, 10, 38, 0)
s = 188: (0, 31, 39, 4, 8, 18, 59, 22, 19, 6, 43, 0)
s = 189: (0, 45, 32, 8, 6, 23, 72, 20, 11, 6, 43, 0)
s = 190: (0, 72, 46, 11, 15, 13, 74, 13, 14, 6, 55, 0)
s = 191: (0, 35, 49, 8, 7, 14, 94, 15, 17, 8, 46, 0)
s = 192: (0, 47, 47, 12, 9, 18, 85, 21, 16, 9, 69, 0)
s = 193: (0, 29, 29, 6, 11, 13, 73, 21, 20, 9, 113, 0)
s = 194: (0, 40, 53, 9, 8, 16, 101, 18, 20, 8, 58, 0)
s = 195: (0, 31, 49, 7, 8, 15, 63, 22, 13, 8, 90, 0)
s = 196: (0, 43, 66, 8, 7, 14, 71, 17, 14, 10, 71, 0)
s = 197: (0, 35, 56, 9, 7, 13, 121, 12, 10, 9, 38, 0)
s = 198: (0, 32, 43, 5, 10, 24, 74, 20, 13, 6, 72, 0)
s = 199: (0, 42, 58, 7, 9, 27, 116, 39, 18, 10, 68, 0)
s = 200: (0, 25, 33, 10, 8, 15, 51, 22, 15, 6, 63, 0)
************************************************************************
ES/LS-VALUES:
jobnr.   ES(i)    LS(i)
------------------------------------------------------------------------
  0        0        0
  1        0       73
  2        0       54
  3        0       61
  4        2       76
  5        9       70
  6        9       63
  7       25       80
  8        9       82
  9       29       84
 10       12       74
 11       30       86
************************************************************************
BIG-M-VALUES:
M1 = 54, M2 = 194
************************************************************************
